14 15

9 2 10 2 11 3 13 3
3 11 10 13 15 9 7 3 6 3
7 15 4 4 11 12 2 4 14 15 12 10
3 8 12 10 2 7 7 13
12 14 11 3 8 10 13 2
3 2 7 12 2 12 8 15
7 12 11 4 13 8 2 7
8 8 5 2 2 7 14 11 15 5 7 14
3 12 7 14 11 11 8 2 2 7
10 7 1 10 12 8 8 8
1 15 11 9 12 13 5 5
6 4 8 12 7 12 4 13 15 3
15 2 11 7 14 5 2 2 8 2 9 15
11 9 5 12 13 6 9 8
